# LAMMPS data file written by OVITO Pro 3.11.0

800 atoms
1 atom types

-49.19024293 0.0 xlo xhi
-16.78000058 16.78000058 ylo yhi
-16.78000058 16.78000058 zlo zhi

Masses

1 12.0107  # C

Atoms  # atomic

1 1 0.0 0.0 6.78000058
2 1 0.0 1.40964138 6.6318413
3 1 -1.22975607 2.0951354 6.44816373
4 1 -1.22975607 3.39000029 5.87165274
5 1 0.0 3.98518435 5.48513569
6 1 -2.45951215 5.03852234 4.5367059
7 1 -1.22975607 5.48513569 3.98518435
8 1 -1.22975607 6.19383873 2.75767467
9 1 0.0 6.44816373 2.0951354
10 1 -2.45951215 6.74285902 0.70870304
11 1 -1.22975607 6.78000058 0.0
12 1 -1.22975607 6.6318413 -1.40964138
13 1 0.0 6.44816373 -2.0951354
14 1 -2.45951215 5.87165274 -3.39000029
15 1 -1.22975607 5.48513569 -3.98518435
16 1 -1.22975607 4.5367059 -5.03852234
17 1 0.0 3.98518435 -5.48513569
18 1 -2.45951215 2.75767467 -6.19383873
19 1 -1.22975607 2.0951354 -6.44816373
20 1 -1.22975607 0.70870304 -6.74285902
21 1 0.0 0.0 -6.78000058
22 1 -2.45951215 -1.40964138 -6.6318413
23 1 -1.22975607 -2.0951354 -6.44816373
24 1 -1.22975607 -3.39000029 -5.87165274
25 1 0.0 -3.98518435 -5.48513569
26 1 -2.45951215 -5.03852234 -4.5367059
27 1 -1.22975607 -5.48513569 -3.98518435
28 1 -1.22975607 -6.19383873 -2.75767467
29 1 0.0 -6.44816373 -2.0951354
30 1 -2.45951215 -6.74285902 -0.70870304
31 1 -1.22975607 -6.78000058 0.0
32 1 -1.22975607 -6.6318413 1.40964138
33 1 0.0 -6.44816373 2.0951354
34 1 -2.45951215 -5.87165274 3.39000029
35 1 -1.22975607 -5.48513569 3.98518435
36 1 -1.22975607 -4.5367059 5.03852234
37 1 0.0 -3.98518435 5.48513569
38 1 -2.45951215 -2.75767467 6.19383873
39 1 -1.22975607 -2.0951354 6.44816373
40 1 -1.22975607 -0.70870304 6.74285902
41 1 -2.45951215 0.0 6.78000058
42 1 -2.45951215 1.40964138 6.6318413
43 1 -3.68926822 2.0951354 6.44816373
44 1 -3.68926822 3.39000029 5.87165274
45 1 -2.45951215 3.98518435 5.48513569
46 1 -4.91902429 5.03852234 4.5367059
47 1 -3.68926822 5.48513569 3.98518435
48 1 -3.68926822 6.19383873 2.75767467
49 1 -2.45951215 6.44816373 2.0951354
50 1 -4.91902429 6.74285902 0.70870304
51 1 -3.68926822 6.78000058 0.0
52 1 -3.68926822 6.6318413 -1.40964138
53 1 -2.45951215 6.44816373 -2.0951354
54 1 -4.91902429 5.87165274 -3.39000029
55 1 -3.68926822 5.48513569 -3.98518435
56 1 -3.68926822 4.5367059 -5.03852234
57 1 -2.45951215 3.98518435 -5.48513569
58 1 -4.91902429 2.75767467 -6.19383873
59 1 -3.68926822 2.0951354 -6.44816373
60 1 -3.68926822 0.70870304 -6.74285902
61 1 -2.45951215 0.0 -6.78000058
62 1 -4.91902429 -1.40964138 -6.6318413
63 1 -3.68926822 -2.0951354 -6.44816373
64 1 -3.68926822 -3.39000029 -5.87165274
65 1 -2.45951215 -3.98518435 -5.48513569
66 1 -4.91902429 -5.03852234 -4.5367059
67 1 -3.68926822 -5.48513569 -3.98518435
68 1 -3.68926822 -6.19383873 -2.75767467
69 1 -2.45951215 -6.44816373 -2.0951354
70 1 -4.91902429 -6.74285902 -0.70870304
71 1 -3.68926822 -6.78000058 0.0
72 1 -3.68926822 -6.6318413 1.40964138
73 1 -2.45951215 -6.44816373 2.0951354
74 1 -4.91902429 -5.87165274 3.39000029
75 1 -3.68926822 -5.48513569 3.98518435
76 1 -3.68926822 -4.5367059 5.03852234
77 1 -2.45951215 -3.98518435 5.48513569
78 1 -4.91902429 -2.75767467 6.19383873
79 1 -3.68926822 -2.0951354 6.44816373
80 1 -3.68926822 -0.70870304 6.74285902
81 1 -4.91902429 0.0 6.78000058
82 1 -4.91902429 1.40964138 6.6318413
83 1 -6.14878037 2.0951354 6.44816373
84 1 -6.14878037 3.39000029 5.87165274
85 1 -4.91902429 3.98518435 5.48513569
86 1 -7.37853644 5.03852234 4.5367059
87 1 -6.14878037 5.48513569 3.98518435
88 1 -6.14878037 6.19383873 2.75767467
89 1 -4.91902429 6.44816373 2.0951354
90 1 -7.37853644 6.74285902 0.70870304
91 1 -6.14878037 6.78000058 0.0
92 1 -6.14878037 6.6318413 -1.40964138
93 1 -4.91902429 6.44816373 -2.0951354
94 1 -7.37853644 5.87165274 -3.39000029
95 1 -6.14878037 5.48513569 -3.98518435
96 1 -6.14878037 4.5367059 -5.03852234
97 1 -4.91902429 3.98518435 -5.48513569
98 1 -7.37853644 2.75767467 -6.19383873
99 1 -6.14878037 2.0951354 -6.44816373
100 1 -6.14878037 0.70870304 -6.74285902
101 1 -4.91902429 0.0 -6.78000058
102 1 -7.37853644 -1.40964138 -6.6318413
103 1 -6.14878037 -2.0951354 -6.44816373
104 1 -6.14878037 -3.39000029 -5.87165274
105 1 -4.91902429 -3.98518435 -5.48513569
106 1 -7.37853644 -5.03852234 -4.5367059
107 1 -6.14878037 -5.48513569 -3.98518435
108 1 -6.14878037 -6.19383873 -2.75767467
109 1 -4.91902429 -6.44816373 -2.0951354
110 1 -7.37853644 -6.74285902 -0.70870304
111 1 -6.14878037 -6.78000058 0.0
112 1 -6.14878037 -6.6318413 1.40964138
113 1 -4.91902429 -6.44816373 2.0951354
114 1 -7.37853644 -5.87165274 3.39000029
115 1 -6.14878037 -5.48513569 3.98518435
116 1 -6.14878037 -4.5367059 5.03852234
117 1 -4.91902429 -3.98518435 5.48513569
118 1 -7.37853644 -2.75767467 6.19383873
119 1 -6.14878037 -2.0951354 6.44816373
120 1 -6.14878037 -0.70870304 6.74285902
121 1 -7.37853644 0.0 6.78000058
122 1 -7.37853644 1.40964138 6.6318413
123 1 -8.60829251 2.0951354 6.44816373
124 1 -8.60829251 3.39000029 5.87165274
125 1 -7.37853644 3.98518435 5.48513569
126 1 -9.83804859 5.03852234 4.5367059
127 1 -8.60829251 5.48513569 3.98518435
128 1 -8.60829251 6.19383873 2.75767467
129 1 -7.37853644 6.44816373 2.0951354
130 1 -9.83804859 6.74285902 0.70870304
131 1 -8.60829251 6.78000058 0.0
132 1 -8.60829251 6.6318413 -1.40964138
133 1 -7.37853644 6.44816373 -2.0951354
134 1 -9.83804859 5.87165274 -3.39000029
135 1 -8.60829251 5.48513569 -3.98518435
136 1 -8.60829251 4.5367059 -5.03852234
137 1 -7.37853644 3.98518435 -5.48513569
138 1 -9.83804859 2.75767467 -6.19383873
139 1 -8.60829251 2.0951354 -6.44816373
140 1 -8.60829251 0.70870304 -6.74285902
141 1 -7.37853644 0.0 -6.78000058
142 1 -9.83804859 -1.40964138 -6.6318413
143 1 -8.60829251 -2.0951354 -6.44816373
144 1 -8.60829251 -3.39000029 -5.87165274
145 1 -7.37853644 -3.98518435 -5.48513569
146 1 -9.83804859 -5.03852234 -4.5367059
147 1 -8.60829251 -5.48513569 -3.98518435
148 1 -8.60829251 -6.19383873 -2.75767467
149 1 -7.37853644 -6.44816373 -2.0951354
150 1 -9.83804859 -6.74285902 -0.70870304
151 1 -8.60829251 -6.78000058 0.0
152 1 -8.60829251 -6.6318413 1.40964138
153 1 -7.37853644 -6.44816373 2.0951354
154 1 -9.83804859 -5.87165274 3.39000029
155 1 -8.60829251 -5.48513569 3.98518435
156 1 -8.60829251 -4.5367059 5.03852234
157 1 -7.37853644 -3.98518435 5.48513569
158 1 -9.83804859 -2.75767467 6.19383873
159 1 -8.60829251 -2.0951354 6.44816373
160 1 -8.60829251 -0.70870304 6.74285902
161 1 -9.83804859 0.0 6.78000058
162 1 -9.83804859 1.40964138 6.6318413
163 1 -11.06780466 2.0951354 6.44816373
164 1 -11.06780466 3.39000029 5.87165274
165 1 -9.83804859 3.98518435 5.48513569
166 1 -12.29756073 5.03852234 4.5367059
167 1 -11.06780466 5.48513569 3.98518435
168 1 -11.06780466 6.19383873 2.75767467
169 1 -9.83804859 6.44816373 2.0951354
170 1 -12.29756073 6.74285902 0.70870304
171 1 -11.06780466 6.78000058 0.0
172 1 -11.06780466 6.6318413 -1.40964138
173 1 -9.83804859 6.44816373 -2.0951354
174 1 -12.29756073 5.87165274 -3.39000029
175 1 -11.06780466 5.48513569 -3.98518435
176 1 -11.06780466 4.5367059 -5.03852234
177 1 -9.83804859 3.98518435 -5.48513569
178 1 -12.29756073 2.75767467 -6.19383873
179 1 -11.06780466 2.0951354 -6.44816373
180 1 -11.06780466 0.70870304 -6.74285902
181 1 -9.83804859 0.0 -6.78000058
182 1 -12.29756073 -1.40964138 -6.6318413
183 1 -11.06780466 -2.0951354 -6.44816373
184 1 -11.06780466 -3.39000029 -5.87165274
185 1 -9.83804859 -3.98518435 -5.48513569
186 1 -12.29756073 -5.03852234 -4.5367059
187 1 -11.06780466 -5.48513569 -3.98518435
188 1 -11.06780466 -6.19383873 -2.75767467
189 1 -9.83804859 -6.44816373 -2.0951354
190 1 -12.29756073 -6.74285902 -0.70870304
191 1 -11.06780466 -6.78000058 0.0
192 1 -11.06780466 -6.6318413 1.40964138
193 1 -9.83804859 -6.44816373 2.0951354
194 1 -12.29756073 -5.87165274 3.39000029
195 1 -11.06780466 -5.48513569 3.98518435
196 1 -11.06780466 -4.5367059 5.03852234
197 1 -9.83804859 -3.98518435 5.48513569
198 1 -12.29756073 -2.75767467 6.19383873
199 1 -11.06780466 -2.0951354 6.44816373
200 1 -11.06780466 -0.70870304 6.74285902
201 1 -12.29756073 0.0 6.78000058
202 1 -12.29756073 1.40964138 6.6318413
203 1 -13.52731681 2.0951354 6.44816373
204 1 -13.52731681 3.39000029 5.87165274
205 1 -12.29756073 3.98518435 5.48513569
206 1 -14.75707288 5.03852234 4.5367059
207 1 -13.52731681 5.48513569 3.98518435
208 1 -13.52731681 6.19383873 2.75767467
209 1 -12.29756073 6.44816373 2.0951354
210 1 -14.75707288 6.74285902 0.70870304
211 1 -13.52731681 6.78000058 0.0
212 1 -13.52731681 6.6318413 -1.40964138
213 1 -12.29756073 6.44816373 -2.0951354
214 1 -14.75707288 5.87165274 -3.39000029
215 1 -13.52731681 5.48513569 -3.98518435
216 1 -13.52731681 4.5367059 -5.03852234
217 1 -12.29756073 3.98518435 -5.48513569
218 1 -14.75707288 2.75767467 -6.19383873
219 1 -13.52731681 2.0951354 -6.44816373
220 1 -13.52731681 0.70870304 -6.74285902
221 1 -12.29756073 0.0 -6.78000058
222 1 -14.75707288 -1.40964138 -6.6318413
223 1 -13.52731681 -2.0951354 -6.44816373
224 1 -13.52731681 -3.39000029 -5.87165274
225 1 -12.29756073 -3.98518435 -5.48513569
226 1 -14.75707288 -5.03852234 -4.5367059
227 1 -13.52731681 -5.48513569 -3.98518435
228 1 -13.52731681 -6.19383873 -2.75767467
229 1 -12.29756073 -6.44816373 -2.0951354
230 1 -14.75707288 -6.74285902 -0.70870304
231 1 -13.52731681 -6.78000058 0.0
232 1 -13.52731681 -6.6318413 1.40964138
233 1 -12.29756073 -6.44816373 2.0951354
234 1 -14.75707288 -5.87165274 3.39000029
235 1 -13.52731681 -5.48513569 3.98518435
236 1 -13.52731681 -4.5367059 5.03852234
237 1 -12.29756073 -3.98518435 5.48513569
238 1 -14.75707288 -2.75767467 6.19383873
239 1 -13.52731681 -2.0951354 6.44816373
240 1 -13.52731681 -0.70870304 6.74285902
241 1 -14.75707288 0.0 6.78000058
242 1 -14.75707288 1.40964138 6.6318413
243 1 -15.98682895 2.0951354 6.44816373
244 1 -15.98682895 3.39000029 5.87165274
245 1 -14.75707288 3.98518435 5.48513569
246 1 -17.21658503 5.03852234 4.5367059
247 1 -15.98682895 5.48513569 3.98518435
248 1 -15.98682895 6.19383873 2.75767467
249 1 -14.75707288 6.44816373 2.0951354
250 1 -17.21658503 6.74285902 0.70870304
251 1 -15.98682895 6.78000058 0.0
252 1 -15.98682895 6.6318413 -1.40964138
253 1 -14.75707288 6.44816373 -2.0951354
254 1 -17.21658503 5.87165274 -3.39000029
255 1 -15.98682895 5.48513569 -3.98518435
256 1 -15.98682895 4.5367059 -5.03852234
257 1 -14.75707288 3.98518435 -5.48513569
258 1 -17.21658503 2.75767467 -6.19383873
259 1 -15.98682895 2.0951354 -6.44816373
260 1 -15.98682895 0.70870304 -6.74285902
261 1 -14.75707288 0.0 -6.78000058
262 1 -17.21658503 -1.40964138 -6.6318413
263 1 -15.98682895 -2.0951354 -6.44816373
264 1 -15.98682895 -3.39000029 -5.87165274
265 1 -14.75707288 -3.98518435 -5.48513569
266 1 -17.21658503 -5.03852234 -4.5367059
267 1 -15.98682895 -5.48513569 -3.98518435
268 1 -15.98682895 -6.19383873 -2.75767467
269 1 -14.75707288 -6.44816373 -2.0951354
270 1 -17.21658503 -6.74285902 -0.70870304
271 1 -15.98682895 -6.78000058 0.0
272 1 -15.98682895 -6.6318413 1.40964138
273 1 -14.75707288 -6.44816373 2.0951354
274 1 -17.21658503 -5.87165274 3.39000029
275 1 -15.98682895 -5.48513569 3.98518435
276 1 -15.98682895 -4.5367059 5.03852234
277 1 -14.75707288 -3.98518435 5.48513569
278 1 -17.21658503 -2.75767467 6.19383873
279 1 -15.98682895 -2.0951354 6.44816373
280 1 -15.98682895 -0.70870304 6.74285902
281 1 -17.21658503 0.0 6.78000058
282 1 -17.21658503 1.40964138 6.6318413
283 1 -18.4463411 2.0951354 6.44816373
284 1 -18.4463411 3.39000029 5.87165274
285 1 -17.21658503 3.98518435 5.48513569
286 1 -19.67609717 5.03852234 4.5367059
287 1 -18.4463411 5.48513569 3.98518435
288 1 -18.4463411 6.19383873 2.75767467
289 1 -17.21658503 6.44816373 2.0951354
290 1 -19.67609717 6.74285902 0.70870304
291 1 -18.4463411 6.78000058 0.0
292 1 -18.4463411 6.6318413 -1.40964138
293 1 -17.21658503 6.44816373 -2.0951354
294 1 -19.67609717 5.87165274 -3.39000029
295 1 -18.4463411 5.48513569 -3.98518435
296 1 -18.4463411 4.5367059 -5.03852234
297 1 -17.21658503 3.98518435 -5.48513569
298 1 -19.67609717 2.75767467 -6.19383873
299 1 -18.4463411 2.0951354 -6.44816373
300 1 -18.4463411 0.70870304 -6.74285902
301 1 -17.21658503 0.0 -6.78000058
302 1 -19.67609717 -1.40964138 -6.6318413
303 1 -18.4463411 -2.0951354 -6.44816373
304 1 -18.4463411 -3.39000029 -5.87165274
305 1 -17.21658503 -3.98518435 -5.48513569
306 1 -19.67609717 -5.03852234 -4.5367059
307 1 -18.4463411 -5.48513569 -3.98518435
308 1 -18.4463411 -6.19383873 -2.75767467
309 1 -17.21658503 -6.44816373 -2.0951354
310 1 -19.67609717 -6.74285902 -0.70870304
311 1 -18.4463411 -6.78000058 0.0
312 1 -18.4463411 -6.6318413 1.40964138
313 1 -17.21658503 -6.44816373 2.0951354
314 1 -19.67609717 -5.87165274 3.39000029
315 1 -18.4463411 -5.48513569 3.98518435
316 1 -18.4463411 -4.5367059 5.03852234
317 1 -17.21658503 -3.98518435 5.48513569
318 1 -19.67609717 -2.75767467 6.19383873
319 1 -18.4463411 -2.0951354 6.44816373
320 1 -18.4463411 -0.70870304 6.74285902
321 1 -19.67609717 0.0 6.78000058
322 1 -19.67609717 1.40964138 6.6318413
323 1 -20.90585325 2.0951354 6.44816373
324 1 -20.90585325 3.39000029 5.87165274
325 1 -19.67609717 3.98518435 5.48513569
326 1 -22.13560932 5.03852234 4.5367059
327 1 -20.90585325 5.48513569 3.98518435
328 1 -20.90585325 6.19383873 2.75767467
329 1 -19.67609717 6.44816373 2.0951354
330 1 -22.13560932 6.74285902 0.70870304
331 1 -20.90585325 6.78000058 0.0
332 1 -20.90585325 6.6318413 -1.40964138
333 1 -19.67609717 6.44816373 -2.0951354
334 1 -22.13560932 5.87165274 -3.39000029
335 1 -20.90585325 5.48513569 -3.98518435
336 1 -20.90585325 4.5367059 -5.03852234
337 1 -19.67609717 3.98518435 -5.48513569
338 1 -22.13560932 2.75767467 -6.19383873
339 1 -20.90585325 2.0951354 -6.44816373
340 1 -20.90585325 0.70870304 -6.74285902
341 1 -19.67609717 0.0 -6.78000058
342 1 -22.13560932 -1.40964138 -6.6318413
343 1 -20.90585325 -2.0951354 -6.44816373
344 1 -20.90585325 -3.39000029 -5.87165274
345 1 -19.67609717 -3.98518435 -5.48513569
346 1 -22.13560932 -5.03852234 -4.5367059
347 1 -20.90585325 -5.48513569 -3.98518435
348 1 -20.90585325 -6.19383873 -2.75767467
349 1 -19.67609717 -6.44816373 -2.0951354
350 1 -22.13560932 -6.74285902 -0.70870304
351 1 -20.90585325 -6.78000058 0.0
352 1 -20.90585325 -6.6318413 1.40964138
353 1 -19.67609717 -6.44816373 2.0951354
354 1 -22.13560932 -5.87165274 3.39000029
355 1 -20.90585325 -5.48513569 3.98518435
356 1 -20.90585325 -4.5367059 5.03852234
357 1 -19.67609717 -3.98518435 5.48513569
358 1 -22.13560932 -2.75767467 6.19383873
359 1 -20.90585325 -2.0951354 6.44816373
360 1 -20.90585325 -0.70870304 6.74285902
361 1 -22.13560932 0.0 6.78000058
362 1 -22.13560932 1.40964138 6.6318413
363 1 -23.36536539 2.0951354 6.44816373
364 1 -23.36536539 3.39000029 5.87165274
365 1 -22.13560932 3.98518435 5.48513569
366 1 -24.59512147 5.03852234 4.5367059
367 1 -23.36536539 5.48513569 3.98518435
368 1 -23.36536539 6.19383873 2.75767467
369 1 -22.13560932 6.44816373 2.0951354
370 1 -24.59512147 6.74285902 0.70870304
371 1 -23.36536539 6.78000058 0.0
372 1 -23.36536539 6.6318413 -1.40964138
373 1 -22.13560932 6.44816373 -2.0951354
374 1 -24.59512147 5.87165274 -3.39000029
375 1 -23.36536539 5.48513569 -3.98518435
376 1 -23.36536539 4.5367059 -5.03852234
377 1 -22.13560932 3.98518435 -5.48513569
378 1 -24.59512147 2.75767467 -6.19383873
379 1 -23.36536539 2.0951354 -6.44816373
380 1 -23.36536539 0.70870304 -6.74285902
381 1 -22.13560932 0.0 -6.78000058
382 1 -24.59512147 -1.40964138 -6.6318413
383 1 -23.36536539 -2.0951354 -6.44816373
384 1 -23.36536539 -3.39000029 -5.87165274
385 1 -22.13560932 -3.98518435 -5.48513569
386 1 -24.59512147 -5.03852234 -4.5367059
387 1 -23.36536539 -5.48513569 -3.98518435
388 1 -23.36536539 -6.19383873 -2.75767467
389 1 -22.13560932 -6.44816373 -2.0951354
390 1 -24.59512147 -6.74285902 -0.70870304
391 1 -23.36536539 -6.78000058 0.0
392 1 -23.36536539 -6.6318413 1.40964138
393 1 -22.13560932 -6.44816373 2.0951354
394 1 -24.59512147 -5.87165274 3.39000029
395 1 -23.36536539 -5.48513569 3.98518435
396 1 -23.36536539 -4.5367059 5.03852234
397 1 -22.13560932 -3.98518435 5.48513569
398 1 -24.59512147 -2.75767467 6.19383873
399 1 -23.36536539 -2.0951354 6.44816373
400 1 -23.36536539 -0.70870304 6.74285902
401 1 -24.59512147 0.0 6.78000058
402 1 -24.59512147 1.40964138 6.6318413
403 1 -25.82487754 2.0951354 6.44816373
404 1 -25.82487754 3.39000029 5.87165274
405 1 -24.59512147 3.98518435 5.48513569
406 1 -27.05463361 5.03852234 4.5367059
407 1 -25.82487754 5.48513569 3.98518435
408 1 -25.82487754 6.19383873 2.75767467
409 1 -24.59512147 6.44816373 2.0951354
410 1 -27.05463361 6.74285902 0.70870304
411 1 -25.82487754 6.78000058 0.0
412 1 -25.82487754 6.6318413 -1.40964138
413 1 -24.59512147 6.44816373 -2.0951354
414 1 -27.05463361 5.87165274 -3.39000029
415 1 -25.82487754 5.48513569 -3.98518435
416 1 -25.82487754 4.5367059 -5.03852234
417 1 -24.59512147 3.98518435 -5.48513569
418 1 -27.05463361 2.75767467 -6.19383873
419 1 -25.82487754 2.0951354 -6.44816373
420 1 -25.82487754 0.70870304 -6.74285902
421 1 -24.59512147 0.0 -6.78000058
422 1 -27.05463361 -1.40964138 -6.6318413
423 1 -25.82487754 -2.0951354 -6.44816373
424 1 -25.82487754 -3.39000029 -5.87165274
425 1 -24.59512147 -3.98518435 -5.48513569
426 1 -27.05463361 -5.03852234 -4.5367059
427 1 -25.82487754 -5.48513569 -3.98518435
428 1 -25.82487754 -6.19383873 -2.75767467
429 1 -24.59512147 -6.44816373 -2.0951354
430 1 -27.05463361 -6.74285902 -0.70870304
431 1 -25.82487754 -6.78000058 0.0
432 1 -25.82487754 -6.6318413 1.40964138
433 1 -24.59512147 -6.44816373 2.0951354
434 1 -27.05463361 -5.87165274 3.39000029
435 1 -25.82487754 -5.48513569 3.98518435
436 1 -25.82487754 -4.5367059 5.03852234
437 1 -24.59512147 -3.98518435 5.48513569
438 1 -27.05463361 -2.75767467 6.19383873
439 1 -25.82487754 -2.0951354 6.44816373
440 1 -25.82487754 -0.70870304 6.74285902
441 1 -27.05463361 0.0 6.78000058
442 1 -27.05463361 1.40964138 6.6318413
443 1 -28.28438969 2.0951354 6.44816373
444 1 -28.28438969 3.39000029 5.87165274
445 1 -27.05463361 3.98518435 5.48513569
446 1 -29.51414576 5.03852234 4.5367059
447 1 -28.28438969 5.48513569 3.98518435
448 1 -28.28438969 6.19383873 2.75767467
449 1 -27.05463361 6.44816373 2.0951354
450 1 -29.51414576 6.74285902 0.70870304
451 1 -28.28438969 6.78000058 0.0
452 1 -28.28438969 6.6318413 -1.40964138
453 1 -27.05463361 6.44816373 -2.0951354
454 1 -29.51414576 5.87165274 -3.39000029
455 1 -28.28438969 5.48513569 -3.98518435
456 1 -28.28438969 4.5367059 -5.03852234
457 1 -27.05463361 3.98518435 -5.48513569
458 1 -29.51414576 2.75767467 -6.19383873
459 1 -28.28438969 2.0951354 -6.44816373
460 1 -28.28438969 0.70870304 -6.74285902
461 1 -27.05463361 0.0 -6.78000058
462 1 -29.51414576 -1.40964138 -6.6318413
463 1 -28.28438969 -2.0951354 -6.44816373
464 1 -28.28438969 -3.39000029 -5.87165274
465 1 -27.05463361 -3.98518435 -5.48513569
466 1 -29.51414576 -5.03852234 -4.5367059
467 1 -28.28438969 -5.48513569 -3.98518435
468 1 -28.28438969 -6.19383873 -2.75767467
469 1 -27.05463361 -6.44816373 -2.0951354
470 1 -29.51414576 -6.74285902 -0.70870304
471 1 -28.28438969 -6.78000058 0.0
472 1 -28.28438969 -6.6318413 1.40964138
473 1 -27.05463361 -6.44816373 2.0951354
474 1 -29.51414576 -5.87165274 3.39000029
475 1 -28.28438969 -5.48513569 3.98518435
476 1 -28.28438969 -4.5367059 5.03852234
477 1 -27.05463361 -3.98518435 5.48513569
478 1 -29.51414576 -2.75767467 6.19383873
479 1 -28.28438969 -2.0951354 6.44816373
480 1 -28.28438969 -0.70870304 6.74285902
481 1 -29.51414576 0.0 6.78000058
482 1 -29.51414576 1.40964138 6.6318413
483 1 -30.74390183 2.0951354 6.44816373
484 1 -30.74390183 3.39000029 5.87165274
485 1 -29.51414576 3.98518435 5.48513569
486 1 -31.97365791 5.03852234 4.5367059
487 1 -30.74390183 5.48513569 3.98518435
488 1 -30.74390183 6.19383873 2.75767467
489 1 -29.51414576 6.44816373 2.0951354
490 1 -31.97365791 6.74285902 0.70870304
491 1 -30.74390183 6.78000058 0.0
492 1 -30.74390183 6.6318413 -1.40964138
493 1 -29.51414576 6.44816373 -2.0951354
494 1 -31.97365791 5.87165274 -3.39000029
495 1 -30.74390183 5.48513569 -3.98518435
496 1 -30.74390183 4.5367059 -5.03852234
497 1 -29.51414576 3.98518435 -5.48513569
498 1 -31.97365791 2.75767467 -6.19383873
499 1 -30.74390183 2.0951354 -6.44816373
500 1 -30.74390183 0.70870304 -6.74285902
501 1 -29.51414576 0.0 -6.78000058
502 1 -31.97365791 -1.40964138 -6.6318413
503 1 -30.74390183 -2.0951354 -6.44816373
504 1 -30.74390183 -3.39000029 -5.87165274
505 1 -29.51414576 -3.98518435 -5.48513569
506 1 -31.97365791 -5.03852234 -4.5367059
507 1 -30.74390183 -5.48513569 -3.98518435
508 1 -30.74390183 -6.19383873 -2.75767467
509 1 -29.51414576 -6.44816373 -2.0951354
510 1 -31.97365791 -6.74285902 -0.70870304
511 1 -30.74390183 -6.78000058 0.0
512 1 -30.74390183 -6.6318413 1.40964138
513 1 -29.51414576 -6.44816373 2.0951354
514 1 -31.97365791 -5.87165274 3.39000029
515 1 -30.74390183 -5.48513569 3.98518435
516 1 -30.74390183 -4.5367059 5.03852234
517 1 -29.51414576 -3.98518435 5.48513569
518 1 -31.97365791 -2.75767467 6.19383873
519 1 -30.74390183 -2.0951354 6.44816373
520 1 -30.74390183 -0.70870304 6.74285902
521 1 -31.97365791 0.0 6.78000058
522 1 -31.97365791 1.40964138 6.6318413
523 1 -33.20341398 2.0951354 6.44816373
524 1 -33.20341398 3.39000029 5.87165274
525 1 -31.97365791 3.98518435 5.48513569
526 1 -34.43317005 5.03852234 4.5367059
527 1 -33.20341398 5.48513569 3.98518435
528 1 -33.20341398 6.19383873 2.75767467
529 1 -31.97365791 6.44816373 2.0951354
530 1 -34.43317005 6.74285902 0.70870304
531 1 -33.20341398 6.78000058 0.0
532 1 -33.20341398 6.6318413 -1.40964138
533 1 -31.97365791 6.44816373 -2.0951354
534 1 -34.43317005 5.87165274 -3.39000029
535 1 -33.20341398 5.48513569 -3.98518435
536 1 -33.20341398 4.5367059 -5.03852234
537 1 -31.97365791 3.98518435 -5.48513569
538 1 -34.43317005 2.75767467 -6.19383873
539 1 -33.20341398 2.0951354 -6.44816373
540 1 -33.20341398 0.70870304 -6.74285902
541 1 -31.97365791 0.0 -6.78000058
542 1 -34.43317005 -1.40964138 -6.6318413
543 1 -33.20341398 -2.0951354 -6.44816373
544 1 -33.20341398 -3.39000029 -5.87165274
545 1 -31.97365791 -3.98518435 -5.48513569
546 1 -34.43317005 -5.03852234 -4.5367059
547 1 -33.20341398 -5.48513569 -3.98518435
548 1 -33.20341398 -6.19383873 -2.75767467
549 1 -31.97365791 -6.44816373 -2.0951354
550 1 -34.43317005 -6.74285902 -0.70870304
551 1 -33.20341398 -6.78000058 0.0
552 1 -33.20341398 -6.6318413 1.40964138
553 1 -31.97365791 -6.44816373 2.0951354
554 1 -34.43317005 -5.87165274 3.39000029
555 1 -33.20341398 -5.48513569 3.98518435
556 1 -33.20341398 -4.5367059 5.03852234
557 1 -31.97365791 -3.98518435 5.48513569
558 1 -34.43317005 -2.75767467 6.19383873
559 1 -33.20341398 -2.0951354 6.44816373
560 1 -33.20341398 -0.70870304 6.74285902
561 1 -34.43317005 0.0 6.78000058
562 1 -34.43317005 1.40964138 6.6318413
563 1 -35.66292613 2.0951354 6.44816373
564 1 -35.66292613 3.39000029 5.87165274
565 1 -34.43317005 3.98518435 5.48513569
566 1 -36.8926822 5.03852234 4.5367059
567 1 -35.66292613 5.48513569 3.98518435
568 1 -35.66292613 6.19383873 2.75767467
569 1 -34.43317005 6.44816373 2.0951354
570 1 -36.8926822 6.74285902 0.70870304
571 1 -35.66292613 6.78000058 0.0
572 1 -35.66292613 6.6318413 -1.40964138
573 1 -34.43317005 6.44816373 -2.0951354
574 1 -36.8926822 5.87165274 -3.39000029
575 1 -35.66292613 5.48513569 -3.98518435
576 1 -35.66292613 4.5367059 -5.03852234
577 1 -34.43317005 3.98518435 -5.48513569
578 1 -36.8926822 2.75767467 -6.19383873
579 1 -35.66292613 2.0951354 -6.44816373
580 1 -35.66292613 0.70870304 -6.74285902
581 1 -34.43317005 0.0 -6.78000058
582 1 -36.8926822 -1.40964138 -6.6318413
583 1 -35.66292613 -2.0951354 -6.44816373
584 1 -35.66292613 -3.39000029 -5.87165274
585 1 -34.43317005 -3.98518435 -5.48513569
586 1 -36.8926822 -5.03852234 -4.5367059
587 1 -35.66292613 -5.48513569 -3.98518435
588 1 -35.66292613 -6.19383873 -2.75767467
589 1 -34.43317005 -6.44816373 -2.0951354
590 1 -36.8926822 -6.74285902 -0.70870304
591 1 -35.66292613 -6.78000058 0.0
592 1 -35.66292613 -6.6318413 1.40964138
593 1 -34.43317005 -6.44816373 2.0951354
594 1 -36.8926822 -5.87165274 3.39000029
595 1 -35.66292613 -5.48513569 3.98518435
596 1 -35.66292613 -4.5367059 5.03852234
597 1 -34.43317005 -3.98518435 5.48513569
598 1 -36.8926822 -2.75767467 6.19383873
599 1 -35.66292613 -2.0951354 6.44816373
600 1 -35.66292613 -0.70870304 6.74285902
601 1 -36.8926822 0.0 6.78000058
602 1 -36.8926822 1.40964138 6.6318413
603 1 -38.12243827 2.0951354 6.44816373
604 1 -38.12243827 3.39000029 5.87165274
605 1 -36.8926822 3.98518435 5.48513569
606 1 -39.35219435 5.03852234 4.5367059
607 1 -38.12243827 5.48513569 3.98518435
608 1 -38.12243827 6.19383873 2.75767467
609 1 -36.8926822 6.44816373 2.0951354
610 1 -39.35219435 6.74285902 0.70870304
611 1 -38.12243827 6.78000058 0.0
612 1 -38.12243827 6.6318413 -1.40964138
613 1 -36.8926822 6.44816373 -2.0951354
614 1 -39.35219435 5.87165274 -3.39000029
615 1 -38.12243827 5.48513569 -3.98518435
616 1 -38.12243827 4.5367059 -5.03852234
617 1 -36.8926822 3.98518435 -5.48513569
618 1 -39.35219435 2.75767467 -6.19383873
619 1 -38.12243827 2.0951354 -6.44816373
620 1 -38.12243827 0.70870304 -6.74285902
621 1 -36.8926822 0.0 -6.78000058
622 1 -39.35219435 -1.40964138 -6.6318413
623 1 -38.12243827 -2.0951354 -6.44816373
624 1 -38.12243827 -3.39000029 -5.87165274
625 1 -36.8926822 -3.98518435 -5.48513569
626 1 -39.35219435 -5.03852234 -4.5367059
627 1 -38.12243827 -5.48513569 -3.98518435
628 1 -38.12243827 -6.19383873 -2.75767467
629 1 -36.8926822 -6.44816373 -2.0951354
630 1 -39.35219435 -6.74285902 -0.70870304
631 1 -38.12243827 -6.78000058 0.0
632 1 -38.12243827 -6.6318413 1.40964138
633 1 -36.8926822 -6.44816373 2.0951354
634 1 -39.35219435 -5.87165274 3.39000029
635 1 -38.12243827 -5.48513569 3.98518435
636 1 -38.12243827 -4.5367059 5.03852234
637 1 -36.8926822 -3.98518435 5.48513569
638 1 -39.35219435 -2.75767467 6.19383873
639 1 -38.12243827 -2.0951354 6.44816373
640 1 -38.12243827 -0.70870304 6.74285902
641 1 -39.35219435 0.0 6.78000058
642 1 -39.35219435 1.40964138 6.6318413
643 1 -40.58195042 2.0951354 6.44816373
644 1 -40.58195042 3.39000029 5.87165274
645 1 -39.35219435 3.98518435 5.48513569
646 1 -41.81170649 5.03852234 4.5367059
647 1 -40.58195042 5.48513569 3.98518435
648 1 -40.58195042 6.19383873 2.75767467
649 1 -39.35219435 6.44816373 2.0951354
650 1 -41.81170649 6.74285902 0.70870304
651 1 -40.58195042 6.78000058 0.0
652 1 -40.58195042 6.6318413 -1.40964138
653 1 -39.35219435 6.44816373 -2.0951354
654 1 -41.81170649 5.87165274 -3.39000029
655 1 -40.58195042 5.48513569 -3.98518435
656 1 -40.58195042 4.5367059 -5.03852234
657 1 -39.35219435 3.98518435 -5.48513569
658 1 -41.81170649 2.75767467 -6.19383873
659 1 -40.58195042 2.0951354 -6.44816373
660 1 -40.58195042 0.70870304 -6.74285902
661 1 -39.35219435 0.0 -6.78000058
662 1 -41.81170649 -1.40964138 -6.6318413
663 1 -40.58195042 -2.0951354 -6.44816373
664 1 -40.58195042 -3.39000029 -5.87165274
665 1 -39.35219435 -3.98518435 -5.48513569
666 1 -41.81170649 -5.03852234 -4.5367059
667 1 -40.58195042 -5.48513569 -3.98518435
668 1 -40.58195042 -6.19383873 -2.75767467
669 1 -39.35219435 -6.44816373 -2.0951354
670 1 -41.81170649 -6.74285902 -0.70870304
671 1 -40.58195042 -6.78000058 0.0
672 1 -40.58195042 -6.6318413 1.40964138
673 1 -39.35219435 -6.44816373 2.0951354
674 1 -41.81170649 -5.87165274 3.39000029
675 1 -40.58195042 -5.48513569 3.98518435
676 1 -40.58195042 -4.5367059 5.03852234
677 1 -39.35219435 -3.98518435 5.48513569
678 1 -41.81170649 -2.75767467 6.19383873
679 1 -40.58195042 -2.0951354 6.44816373
680 1 -40.58195042 -0.70870304 6.74285902
681 1 -41.81170649 0.0 6.78000058
682 1 -41.81170649 1.40964138 6.6318413
683 1 -43.04146257 2.0951354 6.44816373
684 1 -43.04146257 3.39000029 5.87165274
685 1 -41.81170649 3.98518435 5.48513569
686 1 -44.27121864 5.03852234 4.5367059
687 1 -43.04146257 5.48513569 3.98518435
688 1 -43.04146257 6.19383873 2.75767467
689 1 -41.81170649 6.44816373 2.0951354
690 1 -44.27121864 6.74285902 0.70870304
691 1 -43.04146257 6.78000058 0.0
692 1 -43.04146257 6.6318413 -1.40964138
693 1 -41.81170649 6.44816373 -2.0951354
694 1 -44.27121864 5.87165274 -3.39000029
695 1 -43.04146257 5.48513569 -3.98518435
696 1 -43.04146257 4.5367059 -5.03852234
697 1 -41.81170649 3.98518435 -5.48513569
698 1 -44.27121864 2.75767467 -6.19383873
699 1 -43.04146257 2.0951354 -6.44816373
700 1 -43.04146257 0.70870304 -6.74285902
701 1 -41.81170649 0.0 -6.78000058
702 1 -44.27121864 -1.40964138 -6.6318413
703 1 -43.04146257 -2.0951354 -6.44816373
704 1 -43.04146257 -3.39000029 -5.87165274
705 1 -41.81170649 -3.98518435 -5.48513569
706 1 -44.27121864 -5.03852234 -4.5367059
707 1 -43.04146257 -5.48513569 -3.98518435
708 1 -43.04146257 -6.19383873 -2.75767467
709 1 -41.81170649 -6.44816373 -2.0951354
710 1 -44.27121864 -6.74285902 -0.70870304
711 1 -43.04146257 -6.78000058 0.0
712 1 -43.04146257 -6.6318413 1.40964138
713 1 -41.81170649 -6.44816373 2.0951354
714 1 -44.27121864 -5.87165274 3.39000029
715 1 -43.04146257 -5.48513569 3.98518435
716 1 -43.04146257 -4.5367059 5.03852234
717 1 -41.81170649 -3.98518435 5.48513569
718 1 -44.27121864 -2.75767467 6.19383873
719 1 -43.04146257 -2.0951354 6.44816373
720 1 -43.04146257 -0.70870304 6.74285902
721 1 -44.27121864 0.0 6.78000058
722 1 -44.27121864 1.40964138 6.6318413
723 1 -45.50097471 2.0951354 6.44816373
724 1 -45.50097471 3.39000029 5.87165274
725 1 -44.27121864 3.98518435 5.48513569
726 1 -46.73073079 5.03852234 4.5367059
727 1 -45.50097471 5.48513569 3.98518435
728 1 -45.50097471 6.19383873 2.75767467
729 1 -44.27121864 6.44816373 2.0951354
730 1 -46.73073079 6.74285902 0.70870304
731 1 -45.50097471 6.78000058 0.0
732 1 -45.50097471 6.6318413 -1.40964138
733 1 -44.27121864 6.44816373 -2.0951354
734 1 -46.73073079 5.87165274 -3.39000029
735 1 -45.50097471 5.48513569 -3.98518435
736 1 -45.50097471 4.5367059 -5.03852234
737 1 -44.27121864 3.98518435 -5.48513569
738 1 -46.73073079 2.75767467 -6.19383873
739 1 -45.50097471 2.0951354 -6.44816373
740 1 -45.50097471 0.70870304 -6.74285902
741 1 -44.27121864 0.0 -6.78000058
742 1 -46.73073079 -1.40964138 -6.6318413
743 1 -45.50097471 -2.0951354 -6.44816373
744 1 -45.50097471 -3.39000029 -5.87165274
745 1 -44.27121864 -3.98518435 -5.48513569
746 1 -46.73073079 -5.03852234 -4.5367059
747 1 -45.50097471 -5.48513569 -3.98518435
748 1 -45.50097471 -6.19383873 -2.75767467
749 1 -44.27121864 -6.44816373 -2.0951354
750 1 -46.73073079 -6.74285902 -0.70870304
751 1 -45.50097471 -6.78000058 0.0
752 1 -45.50097471 -6.6318413 1.40964138
753 1 -44.27121864 -6.44816373 2.0951354
754 1 -46.73073079 -5.87165274 3.39000029
755 1 -45.50097471 -5.48513569 3.98518435
756 1 -45.50097471 -4.5367059 5.03852234
757 1 -44.27121864 -3.98518435 5.48513569
758 1 -46.73073079 -2.75767467 6.19383873
759 1 -45.50097471 -2.0951354 6.44816373
760 1 -45.50097471 -0.70870304 6.74285902
761 1 -46.73073079 0.0 6.78000058
762 1 -46.73073079 1.40964138 6.6318413
763 1 -47.96048686 2.0951354 6.44816373
764 1 -47.96048686 3.39000029 5.87165274
765 1 -46.73073079 3.98518435 5.48513569
766 1 -49.19024293 5.03852234 4.5367059
767 1 -47.96048686 5.48513569 3.98518435
768 1 -47.96048686 6.19383873 2.75767467
769 1 -46.73073079 6.44816373 2.0951354
770 1 -49.19024293 6.74285902 0.70870304
771 1 -47.96048686 6.78000058 0.0
772 1 -47.96048686 6.6318413 -1.40964138
773 1 -46.73073079 6.44816373 -2.0951354
774 1 -49.19024293 5.87165274 -3.39000029
775 1 -47.96048686 5.48513569 -3.98518435
776 1 -47.96048686 4.5367059 -5.03852234
777 1 -46.73073079 3.98518435 -5.48513569
778 1 -49.19024293 2.75767467 -6.19383873
779 1 -47.96048686 2.0951354 -6.44816373
780 1 -47.96048686 0.70870304 -6.74285902
781 1 -46.73073079 0.0 -6.78000058
782 1 -49.19024293 -1.40964138 -6.6318413
783 1 -47.96048686 -2.0951354 -6.44816373
784 1 -47.96048686 -3.39000029 -5.87165274
785 1 -46.73073079 -3.98518435 -5.48513569
786 1 -49.19024293 -5.03852234 -4.5367059
787 1 -47.96048686 -5.48513569 -3.98518435
788 1 -47.96048686 -6.19383873 -2.75767467
789 1 -46.73073079 -6.44816373 -2.0951354
790 1 -49.19024293 -6.74285902 -0.70870304
791 1 -47.96048686 -6.78000058 0.0
792 1 -47.96048686 -6.6318413 1.40964138
793 1 -46.73073079 -6.44816373 2.0951354
794 1 -49.19024293 -5.87165274 3.39000029
795 1 -47.96048686 -5.48513569 3.98518435
796 1 -47.96048686 -4.5367059 5.03852234
797 1 -46.73073079 -3.98518435 5.48513569
798 1 -49.19024293 -2.75767467 6.19383873
799 1 -47.96048686 -2.0951354 6.44816373
800 1 -47.96048686 -0.70870304 6.74285902
